p cnf 30 45
-27 -17 12 0
-6 7 -30 0
4 -19 26 0
14 26 -11 0
4 -17 -11 0
-29 21 14 0
6 13 9 0
5 11 -26 0
5 7 -27 0
-9 -23 7 0
9 23 28 0
2 -8 -3 0
16 21 -7 0
-15 -29 2 0
-27 -14 -26 0
1 -9 12 0
15 5 9 0
-14 -6 -10 0
3 -22 -8 0
10 -1 27 0
-6 -3 26 0
-22 17 -20 0
-10 24 15 0
19 -9 -25 0
-6 -2 -17 0
-6 -26 -9 0
27 -9 -11 0
21 22 -5 0
-21 16 -26 0
-8 3 -16 0
2 -20 27 0
-23 -25 -21 0
1 -11 -14 0
-7 -12 30 0
-14 24 13 0
-1 18 22 0
2 -26 10 0
-26 -30 2 0
-18 29 -21 0
16 17 3 0
-17 -22 16 0
-25 -11 -4 0
22 -18 -20 0
-14 -19 -22 0
-24 29 19 0
